BAYES
289
2 2 2 2 2 2 2 2 2 2 2 2 2 2 2 2 2 2 2 2 2 2 2 2 2 2 2 2 2 2 2 2 2 2 2 2 2 2 2 2 2 2 2 2 2 2 2 2 2 2 2 2 2 2 2 2 2 2 2 2 2 2 2 2 2 2 2 2 2 2 2 2 2 2 2 2 2 2 2 2 2 2 2 2 2 2 2 2 2 2 2 2 2 2 2 2 2 2 2 2 2 2 2 2 2 2 2 2 2 2 2 2 2 2 2 2 2 2 2 2 2 2 2 2 2 2 2 2 2 2 2 2 2 2 2 2 2 2 2 2 2 2 2 2 2 2 2 2 2 2 2 2 2 2 2 2 2 2 2 2 2 2 2 2 2 2 2 2 2 2 2 2 2 2 2 2 2 2 2 2 2 2 2 2 2 2 2 2 2 2 2 2 2 2 2 2 2 2 2 2 2 2 2 2 2 2 2 2 2 2 2 2 2 2 2 2 2 2 2 2 2 2 2 2 2 2 2 2 2 2 2 2 2 2 2 2 2 2 2 2 2 2 2 2 2 2 2 2 2 2 2 2 2 2 2 2 2 2 2 2 2 2 2 2 2 2 2 2 2 2 2 2 2 2 2 2 2 2 2 2 2 2 2 2 2 2 2 2 2
289
1 0
2 0 1
2 1 2
2 2 3
2 3 4
2 4 5
2 5 6
2 6 7
2 7 8
2 8 9
2 9 10
2 10 11
2 11 12
2 12 13
2 13 14
2 14 15
2 15 16
2 0 17
3 1 17 18
3 2 18 19
3 3 19 20
3 4 20 21
3 5 21 22
3 6 22 23
3 7 23 24
3 8 24 25
3 9 25 26
3 10 26 27
3 11 27 28
3 12 28 29
3 13 29 30
3 14 30 31
3 15 31 32
3 16 32 33
2 17 34
3 18 34 35
3 19 35 36
3 20 36 37
3 21 37 38
3 22 38 39
3 23 39 40
3 24 40 41
3 25 41 42
3 26 42 43
3 27 43 44
3 28 44 45
3 29 45 46
3 30 46 47
3 31 47 48
3 32 48 49
3 33 49 50
2 34 51
3 35 51 52
3 36 52 53
3 37 53 54
3 38 54 55
3 39 55 56
3 40 56 57
3 41 57 58
3 42 58 59
3 43 59 60
3 44 60 61
3 45 61 62
3 46 62 63
3 47 63 64
3 48 64 65
3 49 65 66
3 50 66 67
2 51 68
3 52 68 69
3 53 69 70
3 54 70 71
3 55 71 72
3 56 72 73
3 57 73 74
3 58 74 75
3 59 75 76
3 60 76 77
3 61 77 78
3 62 78 79
3 63 79 80
3 64 80 81
3 65 81 82
3 66 82 83
3 67 83 84
2 68 85
3 69 85 86
3 70 86 87
3 71 87 88
3 72 88 89
3 73 89 90
3 74 90 91
3 75 91 92
3 76 92 93
3 77 93 94
3 78 94 95
3 79 95 96
3 80 96 97
3 81 97 98
3 82 98 99
3 83 99 100
3 84 100 101
2 85 102
3 86 102 103
3 87 103 104
3 88 104 105
3 89 105 106
3 90 106 107
3 91 107 108
3 92 108 109
3 93 109 110
3 94 110 111
3 95 111 112
3 96 112 113
3 97 113 114
3 98 114 115
3 99 115 116
3 100 116 117
3 101 117 118
2 102 119
3 103 119 120
3 104 120 121
3 105 121 122
3 106 122 123
3 107 123 124
3 108 124 125
3 109 125 126
3 110 126 127
3 111 127 128
3 112 128 129
3 113 129 130
3 114 130 131
3 115 131 132
3 116 132 133
3 117 133 134
3 118 134 135
2 119 136
3 120 136 137
3 121 137 138
3 122 138 139
3 123 139 140
3 124 140 141
3 125 141 142
3 126 142 143
3 127 143 144
3 128 144 145
3 129 145 146
3 130 146 147
3 131 147 148
3 132 148 149
3 133 149 150
3 134 150 151
3 135 151 152
2 136 153
3 137 153 154
3 138 154 155
3 139 155 156
3 140 156 157
3 141 157 158
3 142 158 159
3 143 159 160
3 144 160 161
3 145 161 162
3 146 162 163
3 147 163 164
3 148 164 165
3 149 165 166
3 150 166 167
3 151 167 168
3 152 168 169
2 153 170
3 154 170 171
3 155 171 172
3 156 172 173
3 157 173 174
3 158 174 175
3 159 175 176
3 160 176 177
3 161 177 178
3 162 178 179
3 163 179 180
3 164 180 181
3 165 181 182
3 166 182 183
3 167 183 184
3 168 184 185
3 169 185 186
2 170 187
3 171 187 188
3 172 188 189
3 173 189 190
3 174 190 191
3 175 191 192
3 176 192 193
3 177 193 194
3 178 194 195
3 179 195 196
3 180 196 197
3 181 197 198
3 182 198 199
3 183 199 200
3 184 200 201
3 185 201 202
3 186 202 203
2 187 204
3 188 204 205
3 189 205 206
3 190 206 207
3 191 207 208
3 192 208 209
3 193 209 210
3 194 210 211
3 195 211 212
3 196 212 213
3 197 213 214
3 198 214 215
3 199 215 216
3 200 216 217
3 201 217 218
3 202 218 219
3 203 219 220
2 204 221
3 205 221 222
3 206 222 223
3 207 223 224
3 208 224 225
3 209 225 226
3 210 226 227
3 211 227 228
3 212 228 229
3 213 229 230
3 214 230 231
3 215 231 232
3 216 232 233
3 217 233 234
3 218 234 235
3 219 235 236
3 220 236 237
2 221 238
3 222 238 239
3 223 239 240
3 224 240 241
3 225 241 242
3 226 242 243
3 227 243 244
3 228 244 245
3 229 245 246
3 230 246 247
3 231 247 248
3 232 248 249
3 233 249 250
3 234 250 251
3 235 251 252
3 236 252 253
3 237 253 254
2 238 255
3 239 255 256
3 240 256 257
3 241 257 258
3 242 258 259
3 243 259 260
3 244 260 261
3 245 261 262
3 246 262 263
3 247 263 264
3 248 264 265
3 249 265 266
3 250 266 267
3 251 267 268
3 252 268 269
3 253 269 270
3 254 270 271
2 255 272
3 256 272 273
3 257 273 274
3 258 274 275
3 259 275 276
3 260 276 277
3 261 277 278
3 262 278 279
3 263 279 280
3 264 280 281
3 265 281 282
3 266 282 283
3 267 283 284
3 268 284 285
3 269 285 286
3 270 286 287
3 271 287 288

2
0.286483 0.713517
4
0.638085 0.361915 0.0314495 0.96855
4
0.0 1.0 1.0 0.0
4
0.0 1.0 1.0 0.0
4
0.0 1.0 1.0 0.0
4
0.0 1.0 1.0 0.0
4
0.926602 0.0733984 0.567399 0.432601
4
0.0 1.0 1.0 0.0
4
0.903302 0.0966978 0.480907 0.519093
4
0.356042 0.643958 0.0522453 0.947755
4
0.0 1.0 1.0 0.0
4
0.649859 0.350141 0.279265 0.720735
4
0.952722 0.0472783 0.158615 0.841385
4
1.0 0.0 0.0 1.0
4
0.231558 0.768442 2.27597 5.0
4
0.251233 0.748767 0.343227 0.656773
4
0.770922 0.229078 0.721056 0.278944
4
0.32398 0.67602 0.647658 0.352342
8
0.0 1.0 1.0 0.0 1.0 0.0 0.0 1.0
8
0.966401 0.0335989 0.802574 0.197426 0.952171 0.0478292 0.0220216 0.977978
8
0.645853 0.354147 0.671881 0.328119 0.192165 0.807835 0.559479 0.440521
8
0.35078 0.64922 0.759587 0.240413 0.539185 0.460815 0.147479 0.852521
8
0.539208 0.460792 0.876954 0.123046 0.242379 0.757621 0.882434 0.117566
8
0.0133011 0.986699 0.603491 0.396509 0.435694 0.564306 0.337281 0.662719
8
0.0 1.0 0.0 1.0 1.0 0.0 1.0 0.0
8
0.0 1.0 1.0 0.0 1.0 0.0 0.0 1.0
8
0.0425177 0.957482 0.168116 0.831884 0.449904 0.550096 0.234683 0.765317
8
0.0745063 0.925494 0.585463 0.414537 0.487182 0.512818 0.613691 0.386309
8
0.478327 0.521673 0.152899 0.847101 0.609896 0.390104 0.720706 0.279294
8
0.0 1.0 0.0 1.0 0.0 1.0 1.0 0.0
8
0.0 1.0 1.0 0.0 1.0 0.0 1.0 0.0
8
0.0 1.0 1.0 0.0 0.0 1.0 1.0 0.0
8
0.808 0.192 0.450976 0.549024 0.82061 0.17939 0.257904 0.742096
8
0.548204 0.451796 0.332411 0.667589 0.271123 0.728877 0.0353855 0.964615
4
0.0040647 0.995935 0.513713 0.486287
8
0.0 1.0 0.0 1.0 0.0 1.0 1.0 0.0
8
0.773157 0.226843 0.661482 0.338518 0.0397131 0.960287 0.663129 0.336871
8
0.0 1.0 1.0 0.0 1.0 0.0 0.0 1.0
8
1.0 0.0 1.0 0.0 1.0 0.0 0.0 1.0
8
0.515716 0.484284 0.815448 0.184552 0.374807 0.625193 0.848127 0.151873
8
0.0 1.0 0.0 1.0 0.0 1.0 1.0 0.0
8
0.158324 0.841676 0.0275625 0.972437 0.62447 0.37553 0.126749 0.873251
8
0.285952 0.714048 0.166462 0.833538 0.463849 0.536151 0.43181 0.56819
8
0.0 1.0 1.0 0.0 0.0 1.0 1.0 0.0
8
1.0 0.0 0.0 1.0 1.0 0.0 0.0 1.0
8
0.0749836 0.925016 0.0523737 0.947626 0.248019 0.751981 0.92311 0.0768896
8
0.0 1.0 1.0 0.0 0.0 1.0 0.0 1.0
8
0.740441 0.259559 0.63813 0.36187 0.558644 0.441356 0.86719 0.13281
8
0.0 1.0 0.0 1.0 1.0 0.0 0.0 1.0
8
0.128049 0.871951 0.619952 0.380048 0.630432 0.369568 0.429504 0.570496
8
0.677042 0.322958 0.988772 0.0112281 0.964016 0.0359838 0.550254 0.449746
4
0.0 1.0 1.0 0.0
8
0.986866 0.0131341 0.155334 0.844666 0.456485 0.543515 0.704205 0.295795
8
0.0 1.0 1.0 0.0 0.0 1.0 1.0 0.0
8
0.877731 0.122269 0.646232 0.353768 0.391753 0.608247 0.722327 0.277673
8
0.294452 0.705548 0.998732 0.00126772 0.871509 0.128491 0.884268 0.115732
8
1.0 0.0 1.0 0.0 0.0 1.0 1.0 0.0
8
1.0 0.0 1.0 0.0 1.0 0.0 0.0 1.0
8
0.595679 0.404321 0.354291 0.645709 0.996754 0.00324554 0.299884 0.700116
8
0.0353567 0.964643 0.614657 0.385343 0.058289 0.941711 0.814399 0.185601
8
0.93602 0.0639804 0.460632 0.539368 0.959313 0.040687 0.658346 0.341654
8
0.0 1.0 1.0 0.0 1.0 0.0 1.0 0.0
8
0.503486 0.496514 0.652734 0.347266 0.340146 0.659854 0.722038 0.277962
8
0.885204 0.114796 0.904605 0.0953951 0.586472 0.413528 0.494017 0.505983
8
1.0 0.0 1.0 0.0 1.0 0.0 0.0 1.0
8
1.0 0.0 1.0 0.0 0.0 1.0 0.0 1.0
8
0.571797 0.428203 0.191364 0.808636 0.433883 0.566117 0.53111 0.46889
8
0.574399 0.425601 0.784875 0.215125 0.506789 0.493211 0.586424 0.413576
4
0.290649 0.709351 0.0899108 0.910089
8
0.630795 0.369205 0.811948 0.188052 0.420118 0.579882 0.515999 0.484001
8
0.00659003 0.99341 0.0100163 0.989984 0.820115 0.179885 0.133331 0.866669
8
1.0 0.0 0.0 1.0 1.0 0.0 0.0 1.0
8
1.0 0.0 0.0 1.0 1.0 0.0 0.0 1.0
8
0.822813 0.177187 0.596438 0.403562 0.771444 0.228556 0.397213 0.602787
8
1.0 0.0 1.0 0.0 1.0 0.0 0.0 1.0
8
1.0 0.0 0.0 1.0 0.0 1.0 1.0 0.0
8
0.602049 0.397951 0.306573 0.693427 0.725692 0.274308 0.422165 0.577835
8
0.0 1.0 1.0 0.0 1.0 0.0 1.0 0.0
8
1.0 0.0 0.0 1.0 0.0 1.0 0.0 1.0
8
0.827258 0.172742 0.324152 0.675848 0.469995 0.530005 0.598702 0.401298
8
0.851308 0.148692 0.876935 0.123065 0.705002 0.294998 0.15553 0.84447
8
1.0 0.0 0.0 1.0 1.0 0.0 1.0 0.0
8
1.0 0.0 0.0 1.0 0.0 1.0 1.0 0.0
8
0.0818542 0.918146 0.912268 0.0877324 0.388392 0.611608 0.778584 0.221416
8
0.0 1.0 1.0 0.0 1.0 0.0 0.0 1.0
4
0.0 1.0 1.0 0.0
8
0.0 1.0 1.0 0.0 1.0 0.0 0.0 1.0
8
0.0 1.0 1.0 0.0 1.0 0.0 0.0 1.0
8
0.420978 0.579022 0.86328 0.13672 0.585445 0.414555 0.756355 0.243645
8
0.0 1.0 0.0 1.0 0.0 1.0 1.0 0.0
8
1.0 0.0 1.0 0.0 0.0 1.0 0.0 1.0
8
1.0 0.0 0.0 1.0 1.0 0.0 1.0 0.0
8
0.0 1.0 1.0 0.0 0.0 1.0 1.0 0.0
8
0.00329225 0.996708 0.924152 0.0758478 0.839253 0.160747 0.388876 0.611124
8
1.0 0.0 0.0 1.0 1.0 0.0 0.0 1.0
8
0.229668 0.770332 0.197636 0.802364 0.964515 0.0354848 0.540981 0.459019
8
0.444675 0.555325 0.76456 0.23544 0.665626 0.334374 0.703419 0.296581
8
1.0 0.0 0.0 1.0 0.0 1.0 1.0 0.0
8
0.0 1.0 1.0 0.0 0.0 1.0 0.0 1.0
8
0.350182 0.649818 0.87187 0.12813 0.451663 0.548337 0.189435 0.810565
8
1.0 0.0 1.0 0.0 1.0 0.0 0.0 1.0
8
0.0 1.0 0.0 1.0 0.0 1.0 1.0 0.0
4
1.0 0.0 0.0 1.0
8
1.0 0.0 0.0 1.0 1.0 0.0 1.0 0.0
8
0.0 1.0 1.0 0.0 0.0 1.0 1.0 0.0
8
1.0 0.0 0.0 1.0 0.0 1.0 1.0 0.0
8
1.0 0.0 1.0 0.0 1.0 0.0 0.0 1.0
8
1.0 0.0 1.0 0.0 0.0 1.0 0.0 1.0
8
0.547834 0.452166 0.93129 0.0687103 0.455248 0.544752 0.917302 0.0826984
8
1.0 0.0 1.0 0.0 0.0 1.0 0.0 1.0
8
1.0 0.0 0.0 1.0 0.0 1.0 0.0 1.0
8
0.595767 0.404233 0.833847 0.166153 0.502627 0.497373 0.609665 0.390335
8
0.504392 0.495608 0.495433 0.504567 0.436036 0.563964 0.695592 0.304408
8
0.556563 0.443437 0.836879 0.163121 0.859061 0.140939 0.275909 0.724091
8
0.0 1.0 0.0 1.0 1.0 0.0 1.0 0.0
8
0.368183 0.631817 0.66948 0.33052 0.792374 0.207626 0.427606 0.572394
8
0.192839 0.807161 0.541274 0.458726 0.773389 0.226611 0.643285 0.356715
8
0.624434 0.375566 0.239052 0.760948 0.661215 0.338785 0.127061 0.872939
8
0.570325 0.429675 0.631454 0.368546 0.344151 0.655849 0.00636058 0.993639
4
1.0 0.0 0.0 1.0
8
0.163926 0.836074 0.845159 0.154841 0.838832 0.161168 0.438275 0.561725
8
0.662575 0.337425 0.643914 0.356086 0.726376 0.273624 0.403619 0.596381
8
0.0 1.0 0.0 1.0 1.0 0.0 1.0 0.0
8
1.0 0.0 0.0 1.0 0.0 1.0 0.0 1.0
8
0.271169 0.728831 0.46956 0.53044 0.840886 0.159114 0.119886 0.880114
8
0.0 1.0 1.0 0.0 0.0 1.0 0.0 1.0
8
1.0 0.0 1.0 0.0 1.0 0.0 0.0 1.0
8
1.0 0.0 1.0 0.0 0.0 1.0 1.0 0.0
8
0.0575977 0.942402 0.97567 0.0243302 0.710187 0.289813 0.497301 0.502699
8
1.0 0.0 1.0 0.0 1.0 0.0 0.0 1.0
8
1.0 0.0 1.0 0.0 0.0 1.0 1.0 0.0
8
0.408112 0.591888 0.986229 0.0137715 0.842313 0.157687 0.207498 0.792502
8
1.0 0.0 0.0 1.0 0.0 1.0 1.0 0.0
8
0.585097 0.414903 0.0100578 0.989942 0.617896 0.382104 0.164912 0.835088
8
0.675494 0.324506 0.140581 0.859419 0.23444 0.76556 0.172795 0.827205
8
0.0 1.0 1.0 0.0 0.0 1.0 1.0 0.0
4
0.908202 0.0917981 0.8669 0.1331
8
0.843974 0.156026 0.389091 0.610909 0.489948 0.510052 0.252087 0.747913
8
1.0 0.0 1.0 0.0 0.0 1.0 0.0 1.0
8
0.543342 0.456658 0.683225 0.316775 0.20279 0.79721 0.12844 0.87156
8
0.820686 0.179314 0.293351 0.706649 0.217535 0.782465 0.49618 0.50382
8
0.0 1.0 1.0 0.0 1.0 0.0 1.0 0.0
8
0.250028 0.749972 0.257746 0.742254 0.587703 0.412297 0.116928 0.883072
8
0.431677 0.568323 0.506019 0.493981 0.441575 0.558425 0.683764 0.316236
8
0.773836 0.226164 0.143348 0.856652 0.693022 0.306978 0.557579 0.442421
8
0.236364 0.763636 0.240804 0.759196 0.976532 0.0234683 0.364804 0.635196
8
0.797218 0.202782 0.658155 0.341845 0.151623 0.848377 0.293398 0.706602
8
0.0 1.0 0.0 1.0 0.0 1.0 1.0 0.0
8
0.0 1.0 0.0 1.0 1.0 0.0 1.0 0.0
8
0.491793 0.508207 0.657153 0.342847 0.262007 0.737993 0.933368 0.0666323
8
1.0 0.0 0.0 1.0 1.0 0.0 0.0 1.0
8
1.0 0.0 0.0 1.0 0.0 1.0 0.0 1.0
8
1.0 0.0 1.0 0.0 0.0 1.0 0.0 1.0
4
0.0 1.0 1.0 0.0
8
0.0 1.0 0.0 1.0 0.0 1.0 1.0 0.0
8
1.0 0.0 0.0 1.0 0.0 1.0 0.0 1.0
8
0.240982 0.759018 0.535277 0.464723 0.00736957 0.99263 0.384327 0.615673
8
1.0 0.0 1.0 0.0 1.0 0.0 0.0 1.0
8
0.0 1.0 0.0 1.0 1.0 0.0 0.0 1.0
8
0.0 1.0 0.0 1.0 0.0 1.0 1.0 0.0
8
0.160477 0.839523 0.822647 0.177353 0.198567 0.801433 0.944301 0.0556989
8
0.0 1.0 0.0 1.0 1.0 0.0 0.0 1.0
8
1.0 0.0 0.0 1.0 0.0 1.0 0.0 1.0
8
1.0 0.0 0.0 1.0 1.0 0.0 1.0 0.0
8
0.0 1.0 0.0 1.0 0.0 1.0 1.0 0.0
8
0.209906 0.790094 0.736074 0.263926 0.943537 0.056463 0.838524 0.161476
8
0.766184 0.233816 0.0370913 0.962909 0.840853 0.159147 0.811818 0.188182
8
0.0 1.0 0.0 1.0 0.0 1.0 1.0 0.0
8
0.0419308 0.958069 0.751935 0.248065 0.39059 0.60941 0.160989 0.839011
8
0.586205 0.413795 0.0296877 0.970312 0.786584 0.213416 0.794672 0.205328
4
0.681581 0.318419 0.455665 0.544335
8
0.403228 0.596772 0.160482 0.839518 0.961288 0.0387118 0.139302 0.860698
8
1.0 0.0 0.0 1.0 0.0 1.0 0.0 1.0
8
0.682021 0.317979 0.182678 0.817322 0.671159 0.328841 0.518448 0.481552
8
1.0 0.0 0.0 1.0 0.0 1.0 0.0 1.0
8
0.0 1.0 0.0 1.0 1.0 0.0 0.0 1.0
8
0.0 1.0 0.0 1.0 1.0 0.0 1.0 0.0
8
0.0 1.0 1.0 0.0 1.0 0.0 0.0 1.0
8
1.0 0.0 1.0 0.0 0.0 1.0 1.0 0.0
8
0.918201 0.0817989 0.185141 0.814859 0.732906 0.267094 0.589361 0.410639
8
0.171952 0.828048 0.675027 0.324973 0.324055 0.675945 0.313237 0.686763
8
0.696455 0.303545 0.845111 0.154889 0.0912111 0.908789 0.691403 0.308597
8
0.409485 0.590515 0.472935 0.527065 0.875942 0.124058 0.610326 0.389674
8
0.244359 0.755641 0.562549 0.437451 0.802387 0.197613 0.773257 0.226743
8
0.0 1.0 1.0 0.0 0.0 1.0 1.0 0.0
8
0.73961 0.26039 0.767726 0.232274 0.0944355 0.905565 0.472516 0.527484
8
1.0 0.0 0.0 1.0 1.0 0.0 0.0 1.0
4
0.834739 0.165261 0.818534 0.181466
8
0.92595 0.0740501 0.509937 0.490063 0.766007 0.233993 0.335435 0.664565
8
0.641949 0.358051 0.945761 0.0542392 0.918919 0.0810806 0.886308 0.113692
8
0.721307 0.278693 0.659565 0.340435 0.984369 0.0156306 0.529336 0.470664
8
0.0 1.0 1.0 0.0 0.0 1.0 0.0 1.0
8
1.0 0.0 1.0 0.0 1.0 0.0 0.0 1.0
8
0.0 1.0 0.0 1.0 0.0 1.0 1.0 0.0
8
0.790868 0.209132 0.296476 0.703524 0.318044 0.681956 0.556875 0.443125
8
0.300917 0.699083 0.198824 0.801176 0.577671 0.422329 0.219836 0.780164
8
1.0 0.0 1.0 0.0 0.0 1.0 1.0 0.0
8
1.0 0.0 0.0 1.0 0.0 1.0 1.0 0.0
8
1.0 0.0 0.0 1.0 1.0 0.0 0.0 1.0
8
0.573693 0.426307 0.0353867 0.964613 0.712005 0.287995 0.561744 0.438256
8
0.0 1.0 1.0 0.0 0.0 1.0 0.0 1.0
8
0.334299 0.665701 0.139072 0.860928 0.10831 0.89169 0.91197 0.08803
8
1.0 0.0 1.0 0.0 0.0 1.0 1.0 0.0
8
1.0 0.0 1.0 0.0 0.0 1.0 1.0 0.0
4
0.0 1.0 1.0 0.0
8
0.0 1.0 0.0 1.0 0.0 1.0 1.0 0.0
8
0.148653 0.851347 0.556695 0.443305 0.343532 0.656468 0.501265 0.498735
8
0.0 1.0 1.0 0.0 0.0 1.0 0.0 1.0
8
0.505352 0.494648 0.679669 0.320331 0.712504 0.287496 0.503303 0.496697
8
0.650644 0.349356 0.571604 0.428396 0.75025 0.24975 0.399219 0.600781
8
0.37012 0.62988 0.933264 0.0667356 0.353878 0.646122 0.985916 0.0140837
8
0.0 1.0 1.0 0.0 0.0 1.0 0.0 1.0
8
1.0 0.0 0.0 1.0 1.0 0.0 0.0 1.0
8
1.0 0.0 1.0 0.0 0.0 1.0 1.0 0.0
8
1.0 0.0 0.0 1.0 1.0 0.0 1.0 0.0
8
0.241514 0.758486 0.512706 0.487294 0.296101 0.703899 0.125522 0.874478
8
0.229365 0.770635 0.4794 0.5206 0.868743 0.131257 0.551613 0.448387
8
0.970055 0.0299451 0.985277 0.0147226 0.800497 0.199503 0.22215 0.77785
8
0.0 1.0 1.0 0.0 0.0 1.0 0.0 1.0
8
0.521745 0.478255 0.76007 0.23993 0.728352 0.271648 0.0554786 0.944521
8
0.511088 0.488912 0.301716 0.698284 0.596587 0.403413 0.273544 0.726456
4
0.0 1.0 1.0 0.0
8
0.494699 0.505301 0.963622 0.0363779 0.669076 0.330924 0.724063 0.275937
8
0.0 1.0 0.0 1.0 0.0 1.0 1.0 0.0
8
1.0 0.0 0.0 1.0 1.0 0.0 1.0 0.0
8
1.0 0.0 0.0 1.0 1.0 0.0 1.0 0.0
8
0.699934 0.300066 0.0774623 0.922538 0.546525 0.453475 0.211022 0.788978
8
0.0 1.0 1.0 0.0 0.0 1.0 0.0 1.0
8
1.0 0.0 0.0 1.0 0.0 1.0 0.0 1.0
8
1.0 0.0 1.0 0.0 0.0 1.0 0.0 1.0
8
1.0 0.0 0.0 1.0 0.0 1.0 0.0 1.0
8
1.0 0.0 0.0 1.0 0.0 1.0 1.0 0.0
8
1.0 0.0 0.0 1.0 1.0 0.0 1.0 0.0
8
0.0 1.0 1.0 0.0 0.0 1.0 0.0 1.0
8
0.8207 0.1793 0.389667 0.610333 0.571884 0.428116 0.760592 0.239408
8
1.0 0.0 1.0 0.0 1.0 0.0 0.0 1.0
8
0.0 1.0 1.0 0.0 1.0 0.0 0.0 1.0
8
1.0 0.0 0.0 1.0 0.0 1.0 1.0 0.0
4
0.708617 0.291383 0.708617 0.291383
8
0.0688543 0.931146 0.211342 0.788658 0.68484 0.31516 0.80827 0.19173
8
0.234725 0.765275 0.125462 0.874538 0.484228 0.515772 0.0554251 0.944575
8
0.0561118 0.943888 0.816017 0.183983 0.701336 0.298664 0.0158528 0.984147
8
0.0 1.0 0.0 1.0 1.0 0.0 0.0 1.0
8
0.0 1.0 1.0 0.0 0.0 1.0 1.0 0.0
8
0.648362 0.351638 0.386188 0.613812 0.355507 0.644493 0.356979 0.643021
8
1.0 0.0 0.0 1.0 1.0 0.0 1.0 0.0
8
1.0 0.0 0.0 1.0 0.0 1.0 1.0 0.0
8
0.874696 0.125304 0.703664 0.296336 0.766035 0.233965 0.576032 0.423968
8
0.820355 0.179645 0.535789 0.464211 0.372484 0.627516 0.0985616 0.901438
8
1.0 0.0 0.0 1.0 0.0 1.0 1.0 0.0
8
0.656846 0.343154 0.300832 0.699168 0.33622 0.66378 0.0123532 0.987647
8
0.431025 0.568975 0.987381 0.0126193 0.0836457 0.916354 0.737172 0.262828
8
0.317749 0.682251 0.900497 0.0995032 0.54184 0.45816 0.677315 0.322685
8
0.491858 0.508142 0.552011 0.447989 0.251714 0.748286 0.257892 0.742108
8
1.0 0.0 1.0 0.0 0.0 1.0 0.0 1.0
4
1.0 0.0 0.0 1.0
8
0.493072 0.506928 0.817531 0.182469 0.426137 0.573863 0.443105 0.556895
8
1.0 0.0 0.0 1.0 1.0 0.0 0.0 1.0
8
1.0 0.0 1.0 0.0 0.0 1.0 0.0 1.0
8
0.848019 0.151981 0.6632 0.3368 0.463492 0.536508 0.396068 0.603932
8
0.0 1.0 0.0 1.0 0.0 1.0 1.0 0.0
8
0.491197 0.508803 0.807377 0.192623 0.962728 0.0372718 0.668005 0.331995
8
0.736395 0.263605 0.161077 0.838923 0.375877 0.624123 0.162531 0.837469
8
0.850255 0.149745 0.889501 0.110499 0.383507 0.616493 0.336985 0.663015
8
1.0 0.0 1.0 0.0 0.0 1.0 1.0 0.0
8
0.528885 0.471115 0.389398 0.610602 0.595656 0.404344 0.992376 0.00762363
8
0.750714 0.249286 0.00787911 0.992121 0.433248 0.566752 0.163663 0.836337
8
1.0 0.0 1.0 0.0 0.0 1.0 1.0 0.0
8
1.0 0.0 1.0 0.0 1.0 0.0 0.0 1.0
8
0.0881234 0.911877 0.743279 0.256721 0.803415 0.196585 0.47163 0.52837
8
0.0 1.0 1.0 0.0 0.0 1.0 0.0 1.0
8
0.823817 0.176183 0.34929 0.65071 0.996263 0.00373703 0.419473 0.580527
4
1.0 0.0 0.0 1.0
8
0.0 1.0 1.0 0.0 0.0 1.0 1.0 0.0
8
0.0 1.0 1.0 0.0 0.0 1.0 0.0 1.0
8
0.03361 0.96639 0.795517 0.204483 0.869944 0.130056 0.947525 0.0524752
8
0.613223 0.386777 0.75094 0.24906 0.355271 0.644729 0.693487 0.306513
8
0.420757 0.579243 0.584848 0.415152 0.649043 0.350957 0.0276226 0.972377
8
0.0 1.0 0.0 1.0 0.0 1.0 1.0 0.0
8
0.689545 0.310455 0.0205909 0.979409 0.332175 0.667825 0.190515 0.809485
8
1.0 0.0 0.0 1.0 1.0 0.0 1.0 0.0
8
0.427978 0.572022 0.49715 0.50285 0.551189 0.448811 0.311619 0.688381
8
0.0 1.0 0.0 1.0 1.0 0.0 1.0 0.0
8
0.0 1.0 0.0 1.0 1.0 0.0 0.0 1.0
8
0.139155 0.860845 0.625511 0.374489 0.118141 0.881859 0.944769 0.0552308
8
0.807686 0.192314 0.96536 0.0346399 0.956011 0.0439887 0.998201 0.00179856
8
0.0 1.0 1.0 0.0 0.0 1.0 0.0 1.0
8
0.0 1.0 1.0 0.0 1.0 0.0 0.0 1.0
8
0.883217 0.116783 0.280227 0.719773 0.315844 0.684156 0.687077 0.312923